WARNING: for repeatability, setting FPU to use double precision
============================[ Problem Statistics ]=============================
|                                                                             |
|  Number of variables:        226467                                         |
|  Number of clauses:          527061                                         |
|  Parse time:                   0.30 s                                       |
|                                                                             |
============================[ Search Statistics ]==============================
| Conflicts |          ORIGINAL         |          LEARNT          | Progress |
|           |    Vars  Clauses Literals |    Limit  Clauses Lit/Cl |          |
===============================================================================
|       100 |  125472   505771  1136214 |   185449      100     16 | 44.596 % |
|       250 |  125472   505771  1136214 |   203994      250     23 | 44.596 % |
===============================================================================
restarts              : 3
conflicts             : 347            (516 /sec)
decisions             : 8154           (0.00 % random) (12133 /sec)
propagations          : 1559567        (2320639 /sec)
conflict literals     : 11098          (5.26 % deleted)
Memory used           : 57.00 MB
CPU time              : 0.672042 s

SATISFIABLE
